Maximize
 obj: 0 X1
Subject To
 c1:
  + 1 X69 + 1 X23 + 1 X62 + 1 X42 + 1 X57 + 1 X31 + 1 X39 + 1 X90
  + 1 X92
  <= 1
 c2:
  + 1 X13 + 1 X43 + 1 X65 + 1 X37 + 1 X84 + 1 X78 + 1 X54 + 1 X19
  + 1 X89
  <= 1
 c3:
  + 1 X66 + 1 X21 + 1 X98 + 1 X73 + 1 X62 + 1 X30 + 1 X34 + 1 X15
  + 1 X3 + 1 X75 + 1 X78 + 1 X1 + 1 X64 + 1 X49 + 1 X48 + 1 X59
  + 1 X29
  <= 1
 c4:
  + 1 X1 + 1 X76 + 1 X22 + 1 X71 + 1 X44 + 1 X56 + 1 X7 + 1 X92
  + 1 X25 + 1 X19 + 1 X16
  <= 1
 c5:
  + 1 X37 + 1 X96 + 1 X22 + 1 X89 + 1 X5 + 1 X23 + 1 X65 + 1 X60
  + 1 X71 + 1 X76 + 1 X73 + 1 X72 + 1 X75 + 1 X93 + 1 X44 + 1 X15
  + 1 X31
  <= 1
 c6:
  + 1 X17 + 1 X67 + 1 X88 + 1 X73 + 1 X40 + 1 X59 + 1 X35 + 1 X68
  + 1 X90 + 1 X83 + 1 X11 + 1 X69 + 1 X64
  <= 1
 c7:
  + 1 X49 + 1 X64 + 1 X14 + 1 X24 + 1 X86 + 1 X78 + 1 X56 + 1 X73
  <= 1
 c8:
  + 1 X61 + 1 X38 + 1 X20 + 1 X19 + 1 X3 + 1 X76 + 1 X98 + 1 X82
  + 1 X43
  <= 1
 c9:
  + 1 X98 + 1 X22 + 1 X24 + 1 X77 + 1 X76
  <= 1
 c10:
  + 1 X10 + 1 X71 + 1 X6 + 1 X44 + 1 X72 + 1 X37 + 1 X19 + 1 X52
  + 1 X48 + 1 X40 + 1 X64 + 1 X45 + 1 X79 + 1 X69 + 1 X50 + 1 X70
  + 1 X11 + 1 X21 + 1 X87
  <= 1
 c11:
  + 1 X87 + 1 X28 + 1 X1 + 1 X95 + 1 X36 + 1 X21 + 1 X8 + 1 X61
  + 1 X38 + 1 X79 + 1 X62 + 1 X52 + 1 X76 + 1 X72 + 1 X23 + 1 X24
  + 1 X12 + 1 X68 + 1 X22 + 1 X4
  <= 1
 c12:
  + 1 X41 + 1 X92 + 1 X18 + 1 X81 + 1 X90 + 1 X12 + 1 X88 + 1 X33
  <= 1
 c13:
  + 1 X49 + 1 X74 + 1 X43 + 1 X76 + 1 X98 + 1 X71 + 1 X21 + 1 X6
  + 1 X54
  <= 1
 c14:
  + 1 X36 + 1 X98 + 1 X62 + 1 X28 + 1 X10 + 1 X49 + 1 X21
  <= 1
 c15:
  + 1 X80 + 1 X22 + 1 X77 + 1 X24 + 1 X17 + 1 X56 + 1 X38
  <= 1
 c16:
  + 1 X43 + 1 X96 + 1 X98 + 1 X13 + 1 X35 + 1 X94 + 1 X76 + 1 X95
  + 1 X60 + 1 X12 + 1 X42 + 1 X83 + 1 X80 + 1 X10 + 1 X57 + 1 X63
  + 1 X22 + 1 X82 + 1 X75 + 1 X39
  <= 1
 c17:
  + 1 X49 + 1 X13 + 1 X76 + 1 X27 + 1 X100 + 1 X60 + 1 X82 + 1 X69
  + 1 X31 + 1 X57 + 1 X84 + 1 X63 + 1 X18 + 1 X3 + 1 X1 + 1 X78
  + 1 X89 + 1 X17 + 1 X85 + 1 X4
  <= 1
 c18:
  + 1 X89 + 1 X55 + 1 X100 + 1 X12 + 1 X42 + 1 X99 + 1 X80 + 1 X4
  + 1 X46 + 1 X72 + 1 X5 + 1 X82 + 1 X61
  <= 1
 c19:
  + 1 X61 + 1 X13
  <= 1
 c20:
  + 1 X33 + 1 X60 + 1 X82 + 1 X65 + 1 X90 + 1 X20 + 1 X21 + 1 X94
  + 1 X71 + 1 X28 + 1 X43 + 1 X19 + 1 X50 + 1 X10 + 1 X67
  <= 1
 obj1:
  + 10 X1 + 80 X2 + 25 X3 + 51 X4 + 89 X5 + 90 X6 + 88 X7 + 73 X8
  + 25 X9 + 75 X10 + 15 X11 + 37 X12 + 48 X13 + 92 X14 + 93 X15 + 28 X16
  + 32 X17 + 98 X18 + 61 X19 + 65 X20 + 84 X21 + 54 X22 + 62 X23 + 20 X24
  + 39 X25 + 40 X26 + 70 X27 + 2 X28 + 49 X29 + 89 X30 + 77 X31 + 57 X32
  + 12 X33 + 31 X34 + 65 X35 + 78 X36 + 41 X37 + 78 X38 + 34 X39 + 23 X40
  + 52 X41 + 10 X42 + 42 X43 + 100 X44 + 7 X45 + 94 X46 + 82 X47 + 76 X48
  + 94 X49 + 4 X50 + 14 X51 + 91 X52 + 15 X53 + 57 X54 + 45 X55 + 54 X56
  + 26 X57 + 70 X58 + 12 X59 + 41 X60 + 61 X61 + 8 X62 + 50 X63 + 11 X64
  + 24 X65 + 74 X66 + 13 X67 + 74 X68 + 37 X69 + 33 X70 + 45 X71 + 23 X72
  + 99 X73 + 46 X74 + 75 X75 + 99 X76 + 49 X77 + 4 X78 + 5 X79 + 75 X80
  + 38 X81 + 29 X82 + 68 X83 + 45 X84 + 11 X85 + 77 X86 + 93 X87 + 90 X88
  + 76 X89 + 28 X90 + 40 X91 + 29 X92 + 68 X93 + 96 X94 + 23 X95 + 9 X96
  + 54 X97 + 46 X98 + 78 X99 + 83 X100
  >= 1
 obj2:
  + 82 X1 + 61 X2 + 55 X3 + 21 X4 + 43 X5 + 36 X6 + 11 X7 + 12 X8
  + 31 X9 + 85 X10 + 31 X11 + 34 X12 + 64 X13 + 6 X14 + 44 X15 + 28 X16
  + 22 X17 + 74 X18 + 16 X19 + 9 X20 + 70 X21 + 60 X22 + 19 X23 + 8 X24
  + 45 X25 + 29 X26 + 16 X27 + 25 X28 + 57 X29 + 76 X30 + 84 X31 + 48 X32
  + 39 X33 + 54 X34 + 11 X35 + 49 X36 + 63 X37 + 65 X38 + 26 X39 + 30 X40
  + 32 X41 + 38 X42 + 23 X43 + 86 X44 + 69 X45 + 72 X46 + 1 X47 + 69 X48
  + 32 X49 + 55 X50 + 7 X51 + 4 X52 + 13 X53 + 89 X54 + 74 X55 + 81 X56
  + 25 X57 + 29 X58 + 64 X59 + 55 X60 + 89 X61 + 26 X62 + 81 X63 + 49 X64
  + 28 X65 + 21 X66 + 11 X67 + 18 X68 + 2 X69 + 3 X70 + 57 X71 + 50 X72
  + 4 X73 + 75 X74 + 49 X75 + 32 X76 + 5 X77 + 34 X78 + 4 X79 + 11 X80
  + 21 X81 + 9 X82 + 29 X83 + 78 X84 + 49 X85 + 26 X86 + 80 X87 + 5 X88
  + 37 X89 + 98 X90 + 66 X91 + 12 X92 + 97 X93 + 30 X94 + 93 X95 + 20 X96
  + 64 X97 + 31 X98 + 46 X99 + 6 X100
  >= 2
 obj3:
  + 28 X1 + 92 X2 + 16 X3 + 35 X4 + 29 X5 + 17 X6 + 11 X7 + 9 X8
  + 20 X9 + 12 X10 + 43 X11 + 86 X12 + 32 X13 + 37 X14 + 82 X15 + 19 X16
  + 1 X17 + 55 X18 + 12 X19 + 35 X20 + 17 X21 + 15 X22 + 51 X23 + 4 X24
  + 65 X25 + 70 X26 + 78 X27 + 63 X28 + 55 X29 + 39 X30 + 86 X31 + 93 X32
  + 35 X33 + 46 X34 + 36 X35 + 79 X36 + 65 X37 + 65 X38 + 99 X39 + 7 X40
  + 59 X41 + 68 X42 + 35 X43 + 54 X44 + 44 X45 + 76 X46 + 61 X47 + 52 X48
  + 35 X49 + 48 X50 + 62 X51 + 25 X52 + 80 X53 + 5 X54 + 98 X55 + 14 X56
  + 69 X57 + 29 X58 + 72 X59 + 48 X60 + 62 X61 + 18 X62 + 54 X63 + 80 X64
  + 57 X65 + 31 X66 + 39 X67 + 45 X68 + 56 X69 + 30 X70 + 78 X71 + 92 X72
  + 13 X73 + 66 X74 + 54 X75 + 55 X76 + 80 X77 + 22 X78 + 23 X79 + 59 X80
  + 50 X81 + 2 X82 + 69 X83 + 36 X84 + 46 X85 + 84 X86 + 29 X87 + 85 X88
  + 28 X89 + 87 X90 + 32 X91 + 74 X92 + 48 X93 + 21 X94 + 54 X95 + 38 X96
  + 31 X97 + 94 X98 + 53 X99 + 23 X100
  >= 3
Binary
 X1
 X2
 X3
 X4
 X5
 X6
 X7
 X8
 X9
 X10
 X11
 X12
 X13
 X14
 X15
 X16
 X17
 X18
 X19
 X20
 X21
 X22
 X23
 X24
 X25
 X26
 X27
 X28
 X29
 X30
 X31
 X32
 X33
 X34
 X35
 X36
 X37
 X38
 X39
 X40
 X41
 X42
 X43
 X44
 X45
 X46
 X47
 X48
 X49
 X50
 X51
 X52
 X53
 X54
 X55
 X56
 X57
 X58
 X59
 X60
 X61
 X62
 X63
 X64
 X65
 X66
 X67
 X68
 X69
 X70
 X71
 X72
 X73
 X74
 X75
 X76
 X77
 X78
 X79
 X80
 X81
 X82
 X83
 X84
 X85
 X86
 X87
 X88
 X89
 X90
 X91
 X92
 X93
 X94
 X95
 X96
 X97
 X98
 X99
 X100
End
